Maximize
  -9.99e-06 phi_3_fork_2121_mg0_slots - 9.99e-05 phi_3_fork_2121_mg0_hasBuffer - 9.99e-06 load_6_fork_12147_mg0_slots - 9.99e-05 load_6_fork_12147_mg0_hasBuffer - 9.99e-06 load_9_add_1377_mg0_slots - 9.99e-05 load_9_add_1377_mg0_hasBuffer - 9.99e-06 load_12_add_1376_mg0_slots - 9.99e-05 load_12_add_1376_mg0_hasBuffer - 9.99e-06 add_13_store_079_mg0_slots - 9.99e-05 add_13_store_079_mg0_hasBuffer - 9.99e-06 cst_2_add_1686_mg0_slots - 9.99e-05 cst_2_add_1686_mg0_hasBuffer - 9.99e-06 add_16_fork_3125_mg0_slots - 9.99e-05 add_16_fork_3125_mg0_hasBuffer - 9.99e-06 icmp_17_fork_4128_mg0_slots - 9.99e-05 icmp_17_fork_4128_mg0_hasBuffer - 9.99e-06 phiC_1_forkC_11144_mg0_slots - 9.99e-05 phiC_1_forkC_11144_mg0_hasBuffer - 9.99e-06 branchC_2_phiC_192_mg0_slots - 9.99e-05 branchC_2_phiC_192_mg0_hasBuffer - 9.99e-06 phi_n3_fork_6134_mg0_slots - 9.99e-05 phi_n3_fork_6134_mg0_hasBuffer - 9.99e-06 phiC_4_forkC_7137_mg0_slots - 9.99e-05 phiC_4_forkC_7137_mg0_hasBuffer - 9.99e-06 branch_3_phi_361_mg0_slots - 9.99e-05 branch_3_phi_361_mg0_hasBuffer - 9.99e-06 phi_n5_fork_8140_mg0_slots - 9.99e-05 phi_n5_fork_8140_mg0_hasBuffer - 9.99e-06 branch_7_phi_n399_mg0_slots - 9.99e-05 branch_7_phi_n399_mg0_hasBuffer - 9.99e-06 branchC_10_phiC_4103_mg0_slots - 9.99e-05 branchC_10_phiC_4103_mg0_hasBuffer - 9.99e-06 fork_2_load_665_mg0_slots - 9.99e-05 fork_2_load_665_mg0_hasBuffer - 9.99e-06 fork_2_load_969_mg0_slots - 9.99e-05 fork_2_load_969_mg0_hasBuffer - 9.99e-06 fork_2_add_1685_mg0_slots - 9.99e-05 fork_2_add_1685_mg0_hasBuffer - 9.99e-06 fork_3_icmp_1788_mg0_slots - 9.99e-05 fork_3_icmp_1788_mg0_hasBuffer - 9.99e-06 fork_3_branch_3106_mg0_slots - 9.99e-05 fork_3_branch_3106_mg0_hasBuffer - 9.99e-06 fork_4_branchC_295_mg0_slots - 9.99e-05 fork_4_branchC_295_mg0_hasBuffer - 9.99e-06 fork_4_branch_3107_mg0_slots - 9.99e-05 fork_4_branch_3107_mg0_hasBuffer - 9.99e-06 fork_4_phi_n5111_mg0_slots - 9.99e-05 fork_4_phi_n5111_mg0_hasBuffer - 9.99e-06 fork_4_branch_7114_mg0_slots - 9.99e-05 fork_4_branch_7114_mg0_hasBuffer - 9.99e-06 fork_4_branchC_10118_mg0_slots - 9.99e-05 fork_4_branchC_10118_mg0_hasBuffer - 9.99e-06 fork_6_icmp_1789_mg0_slots - 9.99e-05 fork_6_icmp_1789_mg0_hasBuffer - 9.99e-06 fork_6_branch_7113_mg0_slots - 9.99e-05 fork_6_branch_7113_mg0_hasBuffer - 9.99e-06 forkC_7_cst_283_mg0_slots - 9.99e-05 forkC_7_cst_283_mg0_hasBuffer - 9.99e-06 forkC_7_branchC_10117_mg0_slots - 9.99e-05 forkC_7_branchC_10117_mg0_hasBuffer - 9.99e-06 fork_8_phi_360_mg0_slots - 9.99e-05 fork_8_phi_360_mg0_hasBuffer - 9.99e-06 fork_8_phi_n398_mg0_slots - 9.99e-05 fork_8_phi_n398_mg0_hasBuffer - 9.99e-06 fork_8_phiC_4102_mg0_slots - 9.99e-05 fork_8_phiC_4102_mg0_hasBuffer - 9.99e-06 forkC_11_branchC_294_mg0_slots - 9.99e-05 forkC_11_branchC_294_mg0_hasBuffer - 9.99e-06 fork_12_load_1273_mg0_slots - 9.99e-05 fork_12_load_1273_mg0_hasBuffer - 9.99e-06 fork_12_store_080_mg0_slots - 9.99e-05 fork_12_store_080_mg0_hasBuffer + 0.999 x252
Subject to
  timePath_phi_3_out1_mg0 <= 4
  timePath_fork_2_in1_mg0 <= 4
  8 phi_3_fork_2121_mg0_flop - timePath_phi_3_out1_mg0 + timePath_fork_2_in1_mg0 >= 0
  timePath_load_6_out1_mg0 <= 4
  timePath_fork_12_in1_mg0 <= 4
  8 load_6_fork_12147_mg0_flop - timePath_load_6_out1_mg0 + timePath_fork_12_in1_mg0 >= 0
  timePath_load_9_out1_mg0 <= 4
  timePath_add_13_in2_mg0 <= 4
  8 load_9_add_1377_mg0_flop - timePath_load_9_out1_mg0 + timePath_add_13_in2_mg0 >= 0
  timePath_load_12_out1_mg0 <= 4
  timePath_add_13_in1_mg0 <= 4
  8 load_12_add_1376_mg0_flop - timePath_load_12_out1_mg0 + timePath_add_13_in1_mg0 >= 0
  timePath_add_13_out1_mg0 <= 4
  timePath_store_0_in1_mg0 <= 4
  8 add_13_store_079_mg0_flop - timePath_add_13_out1_mg0 + timePath_store_0_in1_mg0 >= 0
  timePath_cst_2_out1_mg0 <= 4
  timePath_add_16_in2_mg0 <= 4
  8 cst_2_add_1686_mg0_flop - timePath_cst_2_out1_mg0 + timePath_add_16_in2_mg0 >= 0
  timePath_add_16_out1_mg0 <= 4
  timePath_fork_3_in1_mg0 <= 4
  8 add_16_fork_3125_mg0_flop - timePath_add_16_out1_mg0 + timePath_fork_3_in1_mg0 >= 0
  timePath_icmp_17_out1_mg0 <= 4
  timePath_fork_4_in1_mg0 <= 4
  8 icmp_17_fork_4128_mg0_flop - timePath_icmp_17_out1_mg0 + timePath_fork_4_in1_mg0 >= 0
  timePath_phiC_1_out1_mg0 <= 4
  timePath_forkC_11_in1_mg0 <= 4
  8 phiC_1_forkC_11144_mg0_flop - timePath_phiC_1_out1_mg0 + timePath_forkC_11_in1_mg0 >= 0
  timePath_branchC_2_out1_mg0 <= 4
  timePath_phiC_1_in2_mg0 <= 4
  8 branchC_2_phiC_192_mg0_flop + timePath_phiC_1_in2_mg0 - timePath_branchC_2_out1_mg0 >= 0
  timePath_phi_n3_out1_mg0 <= 4
  timePath_fork_6_in1_mg0 <= 4
  8 phi_n3_fork_6134_mg0_flop - timePath_phi_n3_out1_mg0 + timePath_fork_6_in1_mg0 >= 0
  timePath_phiC_4_out1_mg0 <= 4
  timePath_forkC_7_in1_mg0 <= 4
  8 phiC_4_forkC_7137_mg0_flop - timePath_phiC_4_out1_mg0 + timePath_forkC_7_in1_mg0 >= 0
  timePath_branch_3_out2_mg0 <= 4
  timePath_phi_3_in2_mg0 <= 4
  8 branch_3_phi_361_mg0_flop + timePath_phi_3_in2_mg0 - timePath_branch_3_out2_mg0 >= 0
  timePath_phi_n5_out1_mg0 <= 4
  timePath_fork_8_in1_mg0 <= 4
  8 phi_n5_fork_8140_mg0_flop - timePath_phi_n5_out1_mg0 + timePath_fork_8_in1_mg0 >= 0
  timePath_branch_7_out2_mg0 <= 4
  timePath_phi_n3_in2_mg0 <= 4
  8 branch_7_phi_n399_mg0_flop + timePath_phi_n3_in2_mg0 - timePath_branch_7_out2_mg0 >= 0
  timePath_branchC_10_out2_mg0 <= 4
  timePath_phiC_4_in2_mg0 <= 4
  8 branchC_10_phiC_4103_mg0_flop + timePath_phiC_4_in2_mg0 - timePath_branchC_10_out2_mg0 >= 0
  timePath_fork_2_out2_mg0 <= 4
  timePath_load_6_in2_mg0 <= 4
  8 fork_2_load_665_mg0_flop + timePath_load_6_in2_mg0 - timePath_fork_2_out2_mg0 >= 0
  timePath_fork_2_out3_mg0 <= 4
  timePath_load_9_in2_mg0 <= 4
  8 fork_2_load_969_mg0_flop + timePath_load_9_in2_mg0 - timePath_fork_2_out3_mg0 >= 0
  timePath_fork_2_out1_mg0 <= 4
  timePath_add_16_in1_mg0 <= 4
  8 fork_2_add_1685_mg0_flop + timePath_add_16_in1_mg0 - timePath_fork_2_out1_mg0 >= 0
  timePath_fork_3_out1_mg0 <= 4
  timePath_icmp_17_in1_mg0 <= 4
  8 fork_3_icmp_1788_mg0_flop + timePath_icmp_17_in1_mg0 - timePath_fork_3_out1_mg0 >= 0
  timePath_fork_3_out2_mg0 <= 4
  timePath_branch_3_in1_mg0 <= 4
  8 fork_3_branch_3106_mg0_flop + timePath_branch_3_in1_mg0 - timePath_fork_3_out2_mg0 >= 0
  timePath_fork_4_out5_mg0 <= 4
  timePath_branchC_2_in2_mg0 <= 4
  8 fork_4_branchC_295_mg0_flop + timePath_branchC_2_in2_mg0 - timePath_fork_4_out5_mg0 >= 0
  timePath_fork_4_out1_mg0 <= 4
  timePath_branch_3_in2_mg0 <= 4
  8 fork_4_branch_3107_mg0_flop + timePath_branch_3_in2_mg0 - timePath_fork_4_out1_mg0 >= 0
  timePath_fork_4_out2_mg0 <= 4
  timePath_phi_n5_in2_mg0 <= 4
  8 fork_4_phi_n5111_mg0_flop + timePath_phi_n5_in2_mg0 - timePath_fork_4_out2_mg0 >= 0
  timePath_fork_4_out3_mg0 <= 4
  timePath_branch_7_in2_mg0 <= 4
  8 fork_4_branch_7114_mg0_flop + timePath_branch_7_in2_mg0 - timePath_fork_4_out3_mg0 >= 0
  timePath_fork_4_out4_mg0 <= 4
  timePath_branchC_10_in2_mg0 <= 4
  8 fork_4_branchC_10118_mg0_flop + timePath_branchC_10_in2_mg0 - timePath_fork_4_out4_mg0 >= 0
  timePath_fork_6_out1_mg0 <= 4
  timePath_icmp_17_in2_mg0 <= 4
  8 fork_6_icmp_1789_mg0_flop + timePath_icmp_17_in2_mg0 - timePath_fork_6_out1_mg0 >= 0
  timePath_fork_6_out2_mg0 <= 4
  timePath_branch_7_in1_mg0 <= 4
  8 fork_6_branch_7113_mg0_flop + timePath_branch_7_in1_mg0 - timePath_fork_6_out2_mg0 >= 0
  timePath_forkC_7_out1_mg0 <= 4
  timePath_cst_2_in1_mg0 <= 4
  8 forkC_7_cst_283_mg0_flop + timePath_cst_2_in1_mg0 - timePath_forkC_7_out1_mg0 >= 0
  timePath_forkC_7_out2_mg0 <= 4
  timePath_branchC_10_in1_mg0 <= 4
  8 forkC_7_branchC_10117_mg0_flop + timePath_branchC_10_in1_mg0 - timePath_forkC_7_out2_mg0 >= 0
  timePath_fork_8_out1_mg0 <= 4
  timePath_phi_3_in1_mg0 <= 4
  8 fork_8_phi_360_mg0_flop + timePath_phi_3_in1_mg0 - timePath_fork_8_out1_mg0 >= 0
  timePath_fork_8_out2_mg0 <= 4
  timePath_phi_n3_in1_mg0 <= 4
  8 fork_8_phi_n398_mg0_flop + timePath_phi_n3_in1_mg0 - timePath_fork_8_out2_mg0 >= 0
  timePath_fork_8_out3_mg0 <= 4
  timePath_phiC_4_in1_mg0 <= 4
  8 fork_8_phiC_4102_mg0_flop + timePath_phiC_4_in1_mg0 - timePath_fork_8_out3_mg0 >= 0
  timePath_forkC_11_out1_mg0 <= 4
  timePath_branchC_2_in1_mg0 <= 4
  8 forkC_11_branchC_294_mg0_flop + timePath_branchC_2_in1_mg0 - timePath_forkC_11_out1_mg0 >= 0
  timePath_fork_12_out1_mg0 <= 4
  timePath_load_12_in2_mg0 <= 4
  8 fork_12_load_1273_mg0_flop + timePath_load_12_in2_mg0 - timePath_fork_12_out1_mg0 >= 0
  timePath_fork_12_out2_mg0 <= 4
  timePath_store_0_in2_mg0 <= 4
  8 fork_12_store_080_mg0_flop + timePath_store_0_in2_mg0 - timePath_fork_12_out2_mg0 >= 0
  -timePath_phi_3_in1_mg0 + timePath_phi_3_out1_mg0 >= 0.366
  -timePath_phi_3_in2_mg0 + timePath_phi_3_out1_mg0 >= 0.366
  timePath_load_6_out1_mg0 = 0
  timePath_load_6_in2_mg0 <= 4
  timePath_load_9_out1_mg0 = 0
  timePath_load_9_in2_mg0 <= 4
  timePath_load_12_out1_mg0 = 0
  timePath_load_12_in2_mg0 <= 4
  -timePath_add_13_in1_mg0 + timePath_add_13_out1_mg0 >= 1.693
  -timePath_add_13_in2_mg0 + timePath_add_13_out1_mg0 >= 1.693
  -timePath_cst_2_in1_mg0 + timePath_cst_2_out1_mg0 >= 0
  -timePath_add_16_in1_mg0 + timePath_add_16_out1_mg0 >= 1.693
  -timePath_add_16_in2_mg0 + timePath_add_16_out1_mg0 >= 1.693
  -timePath_icmp_17_in1_mg0 + timePath_icmp_17_out1_mg0 >= 1.53
  -timePath_icmp_17_in2_mg0 + timePath_icmp_17_out1_mg0 >= 1.53
  -timePath_phiC_1_in2_mg0 + timePath_phiC_1_out1_mg0 >= 0.166
  -timePath_branchC_2_in1_mg0 + timePath_branchC_2_out1_mg0 >= 0
  -timePath_branchC_2_in2_mg0 + timePath_branchC_2_out1_mg0 >= 0
  -timePath_phi_n3_in1_mg0 + timePath_phi_n3_out1_mg0 >= 0.366
  -timePath_phi_n3_in2_mg0 + timePath_phi_n3_out1_mg0 >= 0.366
  -timePath_phiC_4_in1_mg0 + timePath_phiC_4_out1_mg0 >= 0.166
  -timePath_phiC_4_in2_mg0 + timePath_phiC_4_out1_mg0 >= 0.166
  -timePath_branch_3_in1_mg0 + timePath_branch_3_out2_mg0 >= 0
  -timePath_branch_3_in2_mg0 + timePath_branch_3_out2_mg0 >= 0
  -timePath_phi_n5_in2_mg0 + timePath_phi_n5_out1_mg0 >= 0.366
  -timePath_branch_7_in1_mg0 + timePath_branch_7_out2_mg0 >= 0
  -timePath_branch_7_in2_mg0 + timePath_branch_7_out2_mg0 >= 0
  -timePath_branchC_10_in1_mg0 + timePath_branchC_10_out2_mg0 >= 0
  -timePath_branchC_10_in2_mg0 + timePath_branchC_10_out2_mg0 >= 0
  -timePath_fork_2_in1_mg0 + timePath_fork_2_out1_mg0 >= 0
  -timePath_fork_2_in1_mg0 + timePath_fork_2_out2_mg0 >= 0
  -timePath_fork_2_in1_mg0 + timePath_fork_2_out3_mg0 >= 0
  -timePath_fork_3_in1_mg0 + timePath_fork_3_out1_mg0 >= 0
  -timePath_fork_3_in1_mg0 + timePath_fork_3_out2_mg0 >= 0
  -timePath_fork_4_in1_mg0 + timePath_fork_4_out1_mg0 >= 0
  -timePath_fork_4_in1_mg0 + timePath_fork_4_out2_mg0 >= 0
  -timePath_fork_4_in1_mg0 + timePath_fork_4_out3_mg0 >= 0
  -timePath_fork_4_in1_mg0 + timePath_fork_4_out4_mg0 >= 0
  -timePath_fork_4_in1_mg0 + timePath_fork_4_out5_mg0 >= 0
  -timePath_fork_6_in1_mg0 + timePath_fork_6_out1_mg0 >= 0
  -timePath_fork_6_in1_mg0 + timePath_fork_6_out2_mg0 >= 0
  -timePath_forkC_7_in1_mg0 + timePath_forkC_7_out1_mg0 >= 0
  -timePath_forkC_7_in1_mg0 + timePath_forkC_7_out2_mg0 >= 0
  -timePath_fork_8_in1_mg0 + timePath_fork_8_out1_mg0 >= 0
  -timePath_fork_8_in1_mg0 + timePath_fork_8_out2_mg0 >= 0
  -timePath_fork_8_in1_mg0 + timePath_fork_8_out3_mg0 >= 0
  -timePath_forkC_11_in1_mg0 + timePath_forkC_11_out1_mg0 >= 0
  -timePath_fork_12_in1_mg0 + timePath_fork_12_out1_mg0 >= 0
  -timePath_fork_12_in1_mg0 + timePath_fork_12_out2_mg0 >= 0
  59 phi_3_fork_2121_mg0_flop - timeElastic_phi_3_out1_mg0 + timeElastic_fork_2_in1_mg0 >= 0
  -phi_3_fork_2121_mg0_flop + phi_3_fork_2121_mg0_slots >= 0
  -0.01 phi_3_fork_2121_mg0_slots + phi_3_fork_2121_mg0_hasBuffer >= 0
  59 load_6_fork_12147_mg0_flop - timeElastic_load_6_out1_mg0 + timeElastic_fork_12_in1_mg0 >= 0
  -load_6_fork_12147_mg0_flop + load_6_fork_12147_mg0_slots >= 0
  -0.01 load_6_fork_12147_mg0_slots + load_6_fork_12147_mg0_hasBuffer >= 0
  59 load_9_add_1377_mg0_flop - timeElastic_load_9_out1_mg0 + timeElastic_add_13_in2_mg0 >= 0
  -load_9_add_1377_mg0_flop + load_9_add_1377_mg0_slots >= 0
  -0.01 load_9_add_1377_mg0_slots + load_9_add_1377_mg0_hasBuffer >= 0
  59 load_12_add_1376_mg0_flop - timeElastic_load_12_out1_mg0 + timeElastic_add_13_in1_mg0 >= 0
  -load_12_add_1376_mg0_flop + load_12_add_1376_mg0_slots >= 0
  -0.01 load_12_add_1376_mg0_slots + load_12_add_1376_mg0_hasBuffer >= 0
  59 add_13_store_079_mg0_flop - timeElastic_add_13_out1_mg0 + timeElastic_store_0_in1_mg0 >= 0
  -add_13_store_079_mg0_flop + add_13_store_079_mg0_slots >= 0
  -0.01 add_13_store_079_mg0_slots + add_13_store_079_mg0_hasBuffer >= 0
  59 cst_2_add_1686_mg0_flop - timeElastic_cst_2_out1_mg0 + timeElastic_add_16_in2_mg0 >= 0
  -cst_2_add_1686_mg0_flop + cst_2_add_1686_mg0_slots >= 0
  -0.01 cst_2_add_1686_mg0_slots + cst_2_add_1686_mg0_hasBuffer >= 0
  59 add_16_fork_3125_mg0_flop - timeElastic_add_16_out1_mg0 + timeElastic_fork_3_in1_mg0 >= 0
  -add_16_fork_3125_mg0_flop + add_16_fork_3125_mg0_slots >= 0
  -0.01 add_16_fork_3125_mg0_slots + add_16_fork_3125_mg0_hasBuffer >= 0
  59 icmp_17_fork_4128_mg0_flop - timeElastic_icmp_17_out1_mg0 + timeElastic_fork_4_in1_mg0 >= 0
  -icmp_17_fork_4128_mg0_flop + icmp_17_fork_4128_mg0_slots >= 0
  -0.01 icmp_17_fork_4128_mg0_slots + icmp_17_fork_4128_mg0_hasBuffer >= 0
  59 phiC_1_forkC_11144_mg0_flop - timeElastic_phiC_1_out1_mg0 + timeElastic_forkC_11_in1_mg0 >= 0
  -phiC_1_forkC_11144_mg0_flop + phiC_1_forkC_11144_mg0_slots >= 0
  -0.01 phiC_1_forkC_11144_mg0_slots + phiC_1_forkC_11144_mg0_hasBuffer >= 0
  59 branchC_2_phiC_192_mg0_flop + timeElastic_phiC_1_in2_mg0 - timeElastic_branchC_2_out1_mg0 >= 0
  -branchC_2_phiC_192_mg0_flop + branchC_2_phiC_192_mg0_slots >= 0
  -0.01 branchC_2_phiC_192_mg0_slots + branchC_2_phiC_192_mg0_hasBuffer >= 0
  59 phi_n3_fork_6134_mg0_flop - timeElastic_phi_n3_out1_mg0 + timeElastic_fork_6_in1_mg0 >= 0
  -phi_n3_fork_6134_mg0_flop + phi_n3_fork_6134_mg0_slots >= 0
  -0.01 phi_n3_fork_6134_mg0_slots + phi_n3_fork_6134_mg0_hasBuffer >= 0
  59 phiC_4_forkC_7137_mg0_flop - timeElastic_phiC_4_out1_mg0 + timeElastic_forkC_7_in1_mg0 >= 0
  -phiC_4_forkC_7137_mg0_flop + phiC_4_forkC_7137_mg0_slots >= 0
  -0.01 phiC_4_forkC_7137_mg0_slots + phiC_4_forkC_7137_mg0_hasBuffer >= 0
  59 branch_3_phi_361_mg0_flop + timeElastic_phi_3_in2_mg0 - timeElastic_branch_3_out2_mg0 >= 0
  -branch_3_phi_361_mg0_flop + branch_3_phi_361_mg0_slots >= 0
  -0.01 branch_3_phi_361_mg0_slots + branch_3_phi_361_mg0_hasBuffer >= 0
  59 phi_n5_fork_8140_mg0_flop - timeElastic_phi_n5_out1_mg0 + timeElastic_fork_8_in1_mg0 >= 0
  -phi_n5_fork_8140_mg0_flop + phi_n5_fork_8140_mg0_slots >= 0
  -0.01 phi_n5_fork_8140_mg0_slots + phi_n5_fork_8140_mg0_hasBuffer >= 0
  59 branch_7_phi_n399_mg0_flop + timeElastic_phi_n3_in2_mg0 - timeElastic_branch_7_out2_mg0 >= 0
  -branch_7_phi_n399_mg0_flop + branch_7_phi_n399_mg0_slots >= 0
  -0.01 branch_7_phi_n399_mg0_slots + branch_7_phi_n399_mg0_hasBuffer >= 0
  59 branchC_10_phiC_4103_mg0_flop + timeElastic_phiC_4_in2_mg0 - timeElastic_branchC_10_out2_mg0 >= 0
  -branchC_10_phiC_4103_mg0_flop + branchC_10_phiC_4103_mg0_slots >= 0
  -0.01 branchC_10_phiC_4103_mg0_slots + branchC_10_phiC_4103_mg0_hasBuffer >= 0
  59 fork_2_load_665_mg0_flop + timeElastic_load_6_in2_mg0 - timeElastic_fork_2_out2_mg0 >= 0
  -fork_2_load_665_mg0_flop + fork_2_load_665_mg0_slots >= 0
  -0.01 fork_2_load_665_mg0_slots + fork_2_load_665_mg0_hasBuffer >= 0
  59 fork_2_load_969_mg0_flop + timeElastic_load_9_in2_mg0 - timeElastic_fork_2_out3_mg0 >= 0
  -fork_2_load_969_mg0_flop + fork_2_load_969_mg0_slots >= 0
  -0.01 fork_2_load_969_mg0_slots + fork_2_load_969_mg0_hasBuffer >= 0
  59 fork_2_add_1685_mg0_flop + timeElastic_add_16_in1_mg0 - timeElastic_fork_2_out1_mg0 >= 0
  -fork_2_add_1685_mg0_flop + fork_2_add_1685_mg0_slots >= 0
  -0.01 fork_2_add_1685_mg0_slots + fork_2_add_1685_mg0_hasBuffer >= 0
  59 fork_3_icmp_1788_mg0_flop + timeElastic_icmp_17_in1_mg0 - timeElastic_fork_3_out1_mg0 >= 0
  -fork_3_icmp_1788_mg0_flop + fork_3_icmp_1788_mg0_slots >= 0
  -0.01 fork_3_icmp_1788_mg0_slots + fork_3_icmp_1788_mg0_hasBuffer >= 0
  59 fork_3_branch_3106_mg0_flop + timeElastic_branch_3_in1_mg0 - timeElastic_fork_3_out2_mg0 >= 0
  -fork_3_branch_3106_mg0_flop + fork_3_branch_3106_mg0_slots >= 0
  -0.01 fork_3_branch_3106_mg0_slots + fork_3_branch_3106_mg0_hasBuffer >= 0
  59 fork_4_branchC_295_mg0_flop + timeElastic_branchC_2_in2_mg0 - timeElastic_fork_4_out5_mg0 >= 0
  -fork_4_branchC_295_mg0_flop + fork_4_branchC_295_mg0_slots >= 0
  -0.01 fork_4_branchC_295_mg0_slots + fork_4_branchC_295_mg0_hasBuffer >= 0
  59 fork_4_branch_3107_mg0_flop + timeElastic_branch_3_in2_mg0 - timeElastic_fork_4_out1_mg0 >= 0
  -fork_4_branch_3107_mg0_flop + fork_4_branch_3107_mg0_slots >= 0
  -0.01 fork_4_branch_3107_mg0_slots + fork_4_branch_3107_mg0_hasBuffer >= 0
  59 fork_4_phi_n5111_mg0_flop + timeElastic_phi_n5_in2_mg0 - timeElastic_fork_4_out2_mg0 >= 0
  -fork_4_phi_n5111_mg0_flop + fork_4_phi_n5111_mg0_slots >= 0
  -0.01 fork_4_phi_n5111_mg0_slots + fork_4_phi_n5111_mg0_hasBuffer >= 0
  59 fork_4_branch_7114_mg0_flop + timeElastic_branch_7_in2_mg0 - timeElastic_fork_4_out3_mg0 >= 0
  -fork_4_branch_7114_mg0_flop + fork_4_branch_7114_mg0_slots >= 0
  -0.01 fork_4_branch_7114_mg0_slots + fork_4_branch_7114_mg0_hasBuffer >= 0
  59 fork_4_branchC_10118_mg0_flop + timeElastic_branchC_10_in2_mg0 - timeElastic_fork_4_out4_mg0 >= 0
  -fork_4_branchC_10118_mg0_flop + fork_4_branchC_10118_mg0_slots >= 0
  -0.01 fork_4_branchC_10118_mg0_slots + fork_4_branchC_10118_mg0_hasBuffer >= 0
  59 fork_6_icmp_1789_mg0_flop + timeElastic_icmp_17_in2_mg0 - timeElastic_fork_6_out1_mg0 >= 0
  -fork_6_icmp_1789_mg0_flop + fork_6_icmp_1789_mg0_slots >= 0
  -0.01 fork_6_icmp_1789_mg0_slots + fork_6_icmp_1789_mg0_hasBuffer >= 0
  59 fork_6_branch_7113_mg0_flop + timeElastic_branch_7_in1_mg0 - timeElastic_fork_6_out2_mg0 >= 0
  -fork_6_branch_7113_mg0_flop + fork_6_branch_7113_mg0_slots >= 0
  -0.01 fork_6_branch_7113_mg0_slots + fork_6_branch_7113_mg0_hasBuffer >= 0
  59 forkC_7_cst_283_mg0_flop + timeElastic_cst_2_in1_mg0 - timeElastic_forkC_7_out1_mg0 >= 0
  -forkC_7_cst_283_mg0_flop + forkC_7_cst_283_mg0_slots >= 0
  -0.01 forkC_7_cst_283_mg0_slots + forkC_7_cst_283_mg0_hasBuffer >= 0
  59 forkC_7_branchC_10117_mg0_flop + timeElastic_branchC_10_in1_mg0 - timeElastic_forkC_7_out2_mg0 >= 0
  -forkC_7_branchC_10117_mg0_flop + forkC_7_branchC_10117_mg0_slots >= 0
  -0.01 forkC_7_branchC_10117_mg0_slots + forkC_7_branchC_10117_mg0_hasBuffer >= 0
  59 fork_8_phi_360_mg0_flop + timeElastic_phi_3_in1_mg0 - timeElastic_fork_8_out1_mg0 >= 0
  -fork_8_phi_360_mg0_flop + fork_8_phi_360_mg0_slots >= 0
  -0.01 fork_8_phi_360_mg0_slots + fork_8_phi_360_mg0_hasBuffer >= 0
  59 fork_8_phi_n398_mg0_flop + timeElastic_phi_n3_in1_mg0 - timeElastic_fork_8_out2_mg0 >= 0
  -fork_8_phi_n398_mg0_flop + fork_8_phi_n398_mg0_slots >= 0
  -0.01 fork_8_phi_n398_mg0_slots + fork_8_phi_n398_mg0_hasBuffer >= 0
  59 fork_8_phiC_4102_mg0_flop + timeElastic_phiC_4_in1_mg0 - timeElastic_fork_8_out3_mg0 >= 0
  -fork_8_phiC_4102_mg0_flop + fork_8_phiC_4102_mg0_slots >= 0
  -0.01 fork_8_phiC_4102_mg0_slots + fork_8_phiC_4102_mg0_hasBuffer >= 0
  59 phi_3_fork_2121_mg0_slots + timeElastic_branchC_2_in1_mg0 - timeElastic_forkC_11_out1_mg0 >= 0
  0.99 phi_3_fork_2121_mg0_slots >= 0
  59 fork_12_load_1273_mg0_flop + timeElastic_load_12_in2_mg0 - timeElastic_fork_12_out1_mg0 >= 0
  -fork_12_load_1273_mg0_flop + fork_12_load_1273_mg0_slots >= 0
  -0.01 fork_12_load_1273_mg0_slots + fork_12_load_1273_mg0_hasBuffer >= 0
  59 fork_12_store_080_mg0_flop + timeElastic_store_0_in2_mg0 - timeElastic_fork_12_out2_mg0 >= 0
  -fork_12_store_080_mg0_flop + fork_12_store_080_mg0_slots >= 0
  -0.01 fork_12_store_080_mg0_slots + fork_12_store_080_mg0_hasBuffer >= 0
  -timeElastic_phi_3_in1_mg0 + timeElastic_phi_3_out1_mg0 >= 1
  -timeElastic_phi_3_in2_mg0 + timeElastic_phi_3_out1_mg0 >= 1
  -timeElastic_load_6_in2_mg0 + timeElastic_load_6_out1_mg0 >= 1
  -timeElastic_load_9_in2_mg0 + timeElastic_load_9_out1_mg0 >= 1
  -timeElastic_load_12_in2_mg0 + timeElastic_load_12_out1_mg0 >= 1
  -timeElastic_add_13_in1_mg0 + timeElastic_add_13_out1_mg0 >= 1
  -timeElastic_add_13_in2_mg0 + timeElastic_add_13_out1_mg0 >= 1
  -timeElastic_cst_2_in1_mg0 + timeElastic_cst_2_out1_mg0 >= 1
  -timeElastic_add_16_in1_mg0 + timeElastic_add_16_out1_mg0 >= 1
  -timeElastic_add_16_in2_mg0 + timeElastic_add_16_out1_mg0 >= 1
  -timeElastic_icmp_17_in1_mg0 + timeElastic_icmp_17_out1_mg0 >= 1
  -timeElastic_icmp_17_in2_mg0 + timeElastic_icmp_17_out1_mg0 >= 1
  -timeElastic_phiC_1_in2_mg0 + timeElastic_phiC_1_out1_mg0 >= 1
  -timeElastic_branchC_2_in1_mg0 + timeElastic_branchC_2_out1_mg0 >= 1
  -timeElastic_branchC_2_in2_mg0 + timeElastic_branchC_2_out1_mg0 >= 1
  -timeElastic_phi_n3_in1_mg0 + timeElastic_phi_n3_out1_mg0 >= 1
  -timeElastic_phi_n3_in2_mg0 + timeElastic_phi_n3_out1_mg0 >= 1
  -timeElastic_phiC_4_in1_mg0 + timeElastic_phiC_4_out1_mg0 >= 1
  -timeElastic_phiC_4_in2_mg0 + timeElastic_phiC_4_out1_mg0 >= 1
  -timeElastic_branch_3_in1_mg0 + timeElastic_branch_3_out2_mg0 >= 1
  -timeElastic_branch_3_in2_mg0 + timeElastic_branch_3_out2_mg0 >= 1
  -timeElastic_phi_n5_in2_mg0 + timeElastic_phi_n5_out1_mg0 >= 1
  -timeElastic_branch_7_in1_mg0 + timeElastic_branch_7_out2_mg0 >= 1
  -timeElastic_branch_7_in2_mg0 + timeElastic_branch_7_out2_mg0 >= 1
  -timeElastic_branchC_10_in1_mg0 + timeElastic_branchC_10_out2_mg0 >= 1
  -timeElastic_branchC_10_in2_mg0 + timeElastic_branchC_10_out2_mg0 >= 1
  -timeElastic_fork_2_in1_mg0 + timeElastic_fork_2_out1_mg0 >= 1
  -timeElastic_fork_2_in1_mg0 + timeElastic_fork_2_out2_mg0 >= 1
  -timeElastic_fork_2_in1_mg0 + timeElastic_fork_2_out3_mg0 >= 1
  -timeElastic_fork_3_in1_mg0 + timeElastic_fork_3_out1_mg0 >= 1
  -timeElastic_fork_3_in1_mg0 + timeElastic_fork_3_out2_mg0 >= 1
  -timeElastic_fork_4_in1_mg0 + timeElastic_fork_4_out1_mg0 >= 1
  -timeElastic_fork_4_in1_mg0 + timeElastic_fork_4_out2_mg0 >= 1
  -timeElastic_fork_4_in1_mg0 + timeElastic_fork_4_out3_mg0 >= 1
  -timeElastic_fork_4_in1_mg0 + timeElastic_fork_4_out4_mg0 >= 1
  -timeElastic_fork_4_in1_mg0 + timeElastic_fork_4_out5_mg0 >= 1
  -timeElastic_fork_6_in1_mg0 + timeElastic_fork_6_out1_mg0 >= 1
  -timeElastic_fork_6_in1_mg0 + timeElastic_fork_6_out2_mg0 >= 1
  -timeElastic_forkC_7_in1_mg0 + timeElastic_forkC_7_out1_mg0 >= 1
  -timeElastic_forkC_7_in1_mg0 + timeElastic_forkC_7_out2_mg0 >= 1
  -timeElastic_fork_8_in1_mg0 + timeElastic_fork_8_out1_mg0 >= 1
  -timeElastic_fork_8_in1_mg0 + timeElastic_fork_8_out2_mg0 >= 1
  -timeElastic_fork_8_in1_mg0 + timeElastic_fork_8_out3_mg0 >= 1
  -timeElastic_forkC_11_in1_mg0 + timeElastic_forkC_11_out1_mg0 >= 1
  -timeElastic_fork_12_in1_mg0 + timeElastic_fork_12_out1_mg0 >= 1
  -timeElastic_fork_12_in1_mg0 + timeElastic_fork_12_out2_mg0 >= 1
  inRetimeTok_phi_3_mg0_submg0 - inRetimeTok_fork_2_mg0_submg0 + thTok_phi_3_fork_2121_mg0_submg0 = 0
  phi_3_fork_2121_mg0_flop + x252 - thTok_phi_3_fork_2121_mg0_submg0 <= 1
  phi_3_fork_2121_mg0_flop - phi_3_fork_2121_mg0_slots + x252 + thTok_phi_3_fork_2121_mg0_submg0 <= 1
  -phi_3_fork_2121_mg0_slots + thTok_phi_3_fork_2121_mg0_submg0 <= 0
  outRetimeTok_load_6_mg0_submg0 - inRetimeTok_fork_12_mg0_submg0 + thTok_load_6_fork_12147_mg0_submg0 = 0
  load_6_fork_12147_mg0_flop + x252 - thTok_load_6_fork_12147_mg0_submg0 <= 1
  load_6_fork_12147_mg0_flop - load_6_fork_12147_mg0_slots + x252 + thTok_load_6_fork_12147_mg0_submg0 <= 1
  -load_6_fork_12147_mg0_slots + thTok_load_6_fork_12147_mg0_submg0 <= 0
  outRetimeTok_load_9_mg0_submg0 - inRetimeTok_add_13_mg0_submg0 + thTok_load_9_add_1377_mg0_submg0 = 0
  load_9_add_1377_mg0_flop + x252 - thTok_load_9_add_1377_mg0_submg0 <= 1
  load_9_add_1377_mg0_flop - load_9_add_1377_mg0_slots + x252 + thTok_load_9_add_1377_mg0_submg0 <= 1
  -load_9_add_1377_mg0_slots + thTok_load_9_add_1377_mg0_submg0 <= 0
  outRetimeTok_load_12_mg0_submg0 - inRetimeTok_add_13_mg0_submg0 + thTok_load_12_add_1376_mg0_submg0 = 0
  load_12_add_1376_mg0_flop + x252 - thTok_load_12_add_1376_mg0_submg0 <= 1
  load_12_add_1376_mg0_flop - load_12_add_1376_mg0_slots + x252 + thTok_load_12_add_1376_mg0_submg0 <= 1
  -load_12_add_1376_mg0_slots + thTok_load_12_add_1376_mg0_submg0 <= 0
  inRetimeTok_cst_2_mg0_submg0 - inRetimeTok_add_16_mg0_submg0 + thTok_cst_2_add_1686_mg0_submg0 = 0
  cst_2_add_1686_mg0_flop + x252 - thTok_cst_2_add_1686_mg0_submg0 <= 1
  cst_2_add_1686_mg0_flop - cst_2_add_1686_mg0_slots + x252 + thTok_cst_2_add_1686_mg0_submg0 <= 1
  -cst_2_add_1686_mg0_slots + thTok_cst_2_add_1686_mg0_submg0 <= 0
  inRetimeTok_add_16_mg0_submg0 - inRetimeTok_fork_3_mg0_submg0 + thTok_add_16_fork_3125_mg0_submg0 = 0
  add_16_fork_3125_mg0_flop + x252 - thTok_add_16_fork_3125_mg0_submg0 <= 1
  add_16_fork_3125_mg0_flop - add_16_fork_3125_mg0_slots + x252 + thTok_add_16_fork_3125_mg0_submg0 <= 1
  -add_16_fork_3125_mg0_slots + thTok_add_16_fork_3125_mg0_submg0 <= 0
  inRetimeTok_icmp_17_mg0_submg0 - inRetimeTok_fork_4_mg0_submg0 + thTok_icmp_17_fork_4128_mg0_submg0 = 0
  icmp_17_fork_4128_mg0_flop + x252 - thTok_icmp_17_fork_4128_mg0_submg0 <= 1
  icmp_17_fork_4128_mg0_flop - icmp_17_fork_4128_mg0_slots + x252 + thTok_icmp_17_fork_4128_mg0_submg0 <= 1
  -icmp_17_fork_4128_mg0_slots + thTok_icmp_17_fork_4128_mg0_submg0 <= 0
  inRetimeTok_phiC_1_mg0_submg0 - inRetimeTok_forkC_11_mg0_submg0 + thTok_phiC_1_forkC_11144_mg0_submg0 = 0
  phiC_1_forkC_11144_mg0_flop + x252 - thTok_phiC_1_forkC_11144_mg0_submg0 <= 1
  phiC_1_forkC_11144_mg0_flop - phiC_1_forkC_11144_mg0_slots + x252 + thTok_phiC_1_forkC_11144_mg0_submg0 <= 1
  -phiC_1_forkC_11144_mg0_slots + thTok_phiC_1_forkC_11144_mg0_submg0 <= 0
  -inRetimeTok_phiC_1_mg0_submg0 + inRetimeTok_branchC_2_mg0_submg0 + thTok_branchC_2_phiC_192_mg0_submg0 = 1
  branchC_2_phiC_192_mg0_flop + x252 - thTok_branchC_2_phiC_192_mg0_submg0 <= 1
  branchC_2_phiC_192_mg0_flop - branchC_2_phiC_192_mg0_slots + x252 + thTok_branchC_2_phiC_192_mg0_submg0 <= 1
  -branchC_2_phiC_192_mg0_slots + thTok_branchC_2_phiC_192_mg0_submg0 <= 0
  inRetimeTok_phi_n3_mg0_submg0 - inRetimeTok_fork_6_mg0_submg0 + thTok_phi_n3_fork_6134_mg0_submg0 = 0
  phi_n3_fork_6134_mg0_flop + x252 - thTok_phi_n3_fork_6134_mg0_submg0 <= 1
  phi_n3_fork_6134_mg0_flop - phi_n3_fork_6134_mg0_slots + x252 + thTok_phi_n3_fork_6134_mg0_submg0 <= 1
  -phi_n3_fork_6134_mg0_slots + thTok_phi_n3_fork_6134_mg0_submg0 <= 0
  inRetimeTok_phiC_4_mg0_submg0 - inRetimeTok_forkC_7_mg0_submg0 + thTok_phiC_4_forkC_7137_mg0_submg0 = 0
  phiC_4_forkC_7137_mg0_flop + x252 - thTok_phiC_4_forkC_7137_mg0_submg0 <= 1
  phiC_4_forkC_7137_mg0_flop - phiC_4_forkC_7137_mg0_slots + x252 + thTok_phiC_4_forkC_7137_mg0_submg0 <= 1
  -phiC_4_forkC_7137_mg0_slots + thTok_phiC_4_forkC_7137_mg0_submg0 <= 0
  -inRetimeTok_phi_3_mg0_submg0 + inRetimeTok_branch_3_mg0_submg0 + thTok_branch_3_phi_361_mg0_submg0 = 1
  branch_3_phi_361_mg0_flop + x252 - thTok_branch_3_phi_361_mg0_submg0 <= 1
  branch_3_phi_361_mg0_flop - branch_3_phi_361_mg0_slots + x252 + thTok_branch_3_phi_361_mg0_submg0 <= 1
  -branch_3_phi_361_mg0_slots + thTok_branch_3_phi_361_mg0_submg0 <= 0
  inRetimeTok_phi_n5_mg0_submg0 - inRetimeTok_fork_8_mg0_submg0 + thTok_phi_n5_fork_8140_mg0_submg0 = 0
  phi_n5_fork_8140_mg0_flop + x252 - thTok_phi_n5_fork_8140_mg0_submg0 <= 1
  phi_n5_fork_8140_mg0_flop - phi_n5_fork_8140_mg0_slots + x252 + thTok_phi_n5_fork_8140_mg0_submg0 <= 1
  -phi_n5_fork_8140_mg0_slots + thTok_phi_n5_fork_8140_mg0_submg0 <= 0
  -inRetimeTok_phi_n3_mg0_submg0 + inRetimeTok_branch_7_mg0_submg0 + thTok_branch_7_phi_n399_mg0_submg0 = 1
  branch_7_phi_n399_mg0_flop + x252 - thTok_branch_7_phi_n399_mg0_submg0 <= 1
  branch_7_phi_n399_mg0_flop - branch_7_phi_n399_mg0_slots + x252 + thTok_branch_7_phi_n399_mg0_submg0 <= 1
  -branch_7_phi_n399_mg0_slots + thTok_branch_7_phi_n399_mg0_submg0 <= 0
  -inRetimeTok_phiC_4_mg0_submg0 + inRetimeTok_branchC_10_mg0_submg0 + thTok_branchC_10_phiC_4103_mg0_submg0 = 1
  branchC_10_phiC_4103_mg0_flop + x252 - thTok_branchC_10_phiC_4103_mg0_submg0 <= 1
  branchC_10_phiC_4103_mg0_flop - branchC_10_phiC_4103_mg0_slots + x252 + thTok_branchC_10_phiC_4103_mg0_submg0 <= 1
  -branchC_10_phiC_4103_mg0_slots + thTok_branchC_10_phiC_4103_mg0_submg0 <= 0
  -inRetimeTok_load_6_mg0_submg0 + inRetimeTok_fork_2_mg0_submg0 + thTok_fork_2_load_665_mg0_submg0 = 0
  fork_2_load_665_mg0_flop + x252 - thTok_fork_2_load_665_mg0_submg0 <= 1
  fork_2_load_665_mg0_flop - fork_2_load_665_mg0_slots + x252 + thTok_fork_2_load_665_mg0_submg0 <= 1
  -fork_2_load_665_mg0_slots + thTok_fork_2_load_665_mg0_submg0 <= 0
  -inRetimeTok_load_9_mg0_submg0 + inRetimeTok_fork_2_mg0_submg0 + thTok_fork_2_load_969_mg0_submg0 = 0
  fork_2_load_969_mg0_flop + x252 - thTok_fork_2_load_969_mg0_submg0 <= 1
  fork_2_load_969_mg0_flop - fork_2_load_969_mg0_slots + x252 + thTok_fork_2_load_969_mg0_submg0 <= 1
  -fork_2_load_969_mg0_slots + thTok_fork_2_load_969_mg0_submg0 <= 0
  -inRetimeTok_add_16_mg0_submg0 + inRetimeTok_fork_2_mg0_submg0 + thTok_fork_2_add_1685_mg0_submg0 = 0
  fork_2_add_1685_mg0_flop + x252 - thTok_fork_2_add_1685_mg0_submg0 <= 1
  fork_2_add_1685_mg0_flop - fork_2_add_1685_mg0_slots + x252 + thTok_fork_2_add_1685_mg0_submg0 <= 1
  -fork_2_add_1685_mg0_slots + thTok_fork_2_add_1685_mg0_submg0 <= 0
  -inRetimeTok_icmp_17_mg0_submg0 + inRetimeTok_fork_3_mg0_submg0 + thTok_fork_3_icmp_1788_mg0_submg0 = 0
  fork_3_icmp_1788_mg0_flop + x252 - thTok_fork_3_icmp_1788_mg0_submg0 <= 1
  fork_3_icmp_1788_mg0_flop - fork_3_icmp_1788_mg0_slots + x252 + thTok_fork_3_icmp_1788_mg0_submg0 <= 1
  -fork_3_icmp_1788_mg0_slots + thTok_fork_3_icmp_1788_mg0_submg0 <= 0
  -inRetimeTok_branch_3_mg0_submg0 + inRetimeTok_fork_3_mg0_submg0 + thTok_fork_3_branch_3106_mg0_submg0 = 0
  fork_3_branch_3106_mg0_flop + x252 - thTok_fork_3_branch_3106_mg0_submg0 <= 1
  fork_3_branch_3106_mg0_flop - fork_3_branch_3106_mg0_slots + x252 + thTok_fork_3_branch_3106_mg0_submg0 <= 1
  -fork_3_branch_3106_mg0_slots + thTok_fork_3_branch_3106_mg0_submg0 <= 0
  -inRetimeTok_branchC_2_mg0_submg0 + inRetimeTok_fork_4_mg0_submg0 + thTok_fork_4_branchC_295_mg0_submg0 = 0
  fork_4_branchC_295_mg0_flop + x252 - thTok_fork_4_branchC_295_mg0_submg0 <= 1
  fork_4_branchC_295_mg0_flop - fork_4_branchC_295_mg0_slots + x252 + thTok_fork_4_branchC_295_mg0_submg0 <= 1
  -fork_4_branchC_295_mg0_slots + thTok_fork_4_branchC_295_mg0_submg0 <= 0
  -inRetimeTok_branch_3_mg0_submg0 + inRetimeTok_fork_4_mg0_submg0 + thTok_fork_4_branch_3107_mg0_submg0 = 0
  fork_4_branch_3107_mg0_flop + x252 - thTok_fork_4_branch_3107_mg0_submg0 <= 1
  fork_4_branch_3107_mg0_flop - fork_4_branch_3107_mg0_slots + x252 + thTok_fork_4_branch_3107_mg0_submg0 <= 1
  -fork_4_branch_3107_mg0_slots + thTok_fork_4_branch_3107_mg0_submg0 <= 0
  -inRetimeTok_phi_n5_mg0_submg0 + inRetimeTok_fork_4_mg0_submg0 + thTok_fork_4_phi_n5111_mg0_submg0 = 1
  fork_4_phi_n5111_mg0_flop + x252 - thTok_fork_4_phi_n5111_mg0_submg0 <= 1
  fork_4_phi_n5111_mg0_flop - fork_4_phi_n5111_mg0_slots + x252 + thTok_fork_4_phi_n5111_mg0_submg0 <= 1
  -fork_4_phi_n5111_mg0_slots + thTok_fork_4_phi_n5111_mg0_submg0 <= 0
  -inRetimeTok_branch_7_mg0_submg0 + inRetimeTok_fork_4_mg0_submg0 + thTok_fork_4_branch_7114_mg0_submg0 = 0
  fork_4_branch_7114_mg0_flop + x252 - thTok_fork_4_branch_7114_mg0_submg0 <= 1
  fork_4_branch_7114_mg0_flop - fork_4_branch_7114_mg0_slots + x252 + thTok_fork_4_branch_7114_mg0_submg0 <= 1
  -fork_4_branch_7114_mg0_slots + thTok_fork_4_branch_7114_mg0_submg0 <= 0
  -inRetimeTok_branchC_10_mg0_submg0 + inRetimeTok_fork_4_mg0_submg0 + thTok_fork_4_branchC_10118_mg0_submg0 = 0
  fork_4_branchC_10118_mg0_flop + x252 - thTok_fork_4_branchC_10118_mg0_submg0 <= 1
  fork_4_branchC_10118_mg0_flop - fork_4_branchC_10118_mg0_slots + x252 + thTok_fork_4_branchC_10118_mg0_submg0 <= 1
  -fork_4_branchC_10118_mg0_slots + thTok_fork_4_branchC_10118_mg0_submg0 <= 0
  -inRetimeTok_icmp_17_mg0_submg0 + inRetimeTok_fork_6_mg0_submg0 + thTok_fork_6_icmp_1789_mg0_submg0 = 0
  fork_6_icmp_1789_mg0_flop + x252 - thTok_fork_6_icmp_1789_mg0_submg0 <= 1
  fork_6_icmp_1789_mg0_flop - fork_6_icmp_1789_mg0_slots + x252 + thTok_fork_6_icmp_1789_mg0_submg0 <= 1
  -fork_6_icmp_1789_mg0_slots + thTok_fork_6_icmp_1789_mg0_submg0 <= 0
  -inRetimeTok_branch_7_mg0_submg0 + inRetimeTok_fork_6_mg0_submg0 + thTok_fork_6_branch_7113_mg0_submg0 = 0
  fork_6_branch_7113_mg0_flop + x252 - thTok_fork_6_branch_7113_mg0_submg0 <= 1
  fork_6_branch_7113_mg0_flop - fork_6_branch_7113_mg0_slots + x252 + thTok_fork_6_branch_7113_mg0_submg0 <= 1
  -fork_6_branch_7113_mg0_slots + thTok_fork_6_branch_7113_mg0_submg0 <= 0
  -inRetimeTok_cst_2_mg0_submg0 + inRetimeTok_forkC_7_mg0_submg0 + thTok_forkC_7_cst_283_mg0_submg0 = 0
  forkC_7_cst_283_mg0_flop + x252 - thTok_forkC_7_cst_283_mg0_submg0 <= 1
  forkC_7_cst_283_mg0_flop - forkC_7_cst_283_mg0_slots + x252 + thTok_forkC_7_cst_283_mg0_submg0 <= 1
  -forkC_7_cst_283_mg0_slots + thTok_forkC_7_cst_283_mg0_submg0 <= 0
  -inRetimeTok_branchC_10_mg0_submg0 + inRetimeTok_forkC_7_mg0_submg0 + thTok_forkC_7_branchC_10117_mg0_submg0 = 0
  forkC_7_branchC_10117_mg0_flop + x252 - thTok_forkC_7_branchC_10117_mg0_submg0 <= 1
  forkC_7_branchC_10117_mg0_flop - forkC_7_branchC_10117_mg0_slots + x252 + thTok_forkC_7_branchC_10117_mg0_submg0 <= 1
  -forkC_7_branchC_10117_mg0_slots + thTok_forkC_7_branchC_10117_mg0_submg0 <= 0
  -inRetimeTok_phi_3_mg0_submg0 + inRetimeTok_fork_8_mg0_submg0 + thTok_fork_8_phi_360_mg0_submg0 = 0
  fork_8_phi_360_mg0_flop + x252 - thTok_fork_8_phi_360_mg0_submg0 <= 1
  fork_8_phi_360_mg0_flop - fork_8_phi_360_mg0_slots + x252 + thTok_fork_8_phi_360_mg0_submg0 <= 1
  -fork_8_phi_360_mg0_slots + thTok_fork_8_phi_360_mg0_submg0 <= 0
  -inRetimeTok_phi_n3_mg0_submg0 + inRetimeTok_fork_8_mg0_submg0 + thTok_fork_8_phi_n398_mg0_submg0 = 0
  fork_8_phi_n398_mg0_flop + x252 - thTok_fork_8_phi_n398_mg0_submg0 <= 1
  fork_8_phi_n398_mg0_flop - fork_8_phi_n398_mg0_slots + x252 + thTok_fork_8_phi_n398_mg0_submg0 <= 1
  -fork_8_phi_n398_mg0_slots + thTok_fork_8_phi_n398_mg0_submg0 <= 0
  -inRetimeTok_phiC_4_mg0_submg0 + inRetimeTok_fork_8_mg0_submg0 + thTok_fork_8_phiC_4102_mg0_submg0 = 0
  fork_8_phiC_4102_mg0_flop + x252 - thTok_fork_8_phiC_4102_mg0_submg0 <= 1
  fork_8_phiC_4102_mg0_flop - fork_8_phiC_4102_mg0_slots + x252 + thTok_fork_8_phiC_4102_mg0_submg0 <= 1
  -fork_8_phiC_4102_mg0_slots + thTok_fork_8_phiC_4102_mg0_submg0 <= 0
  -inRetimeTok_branchC_2_mg0_submg0 + inRetimeTok_forkC_11_mg0_submg0 + thTok_forkC_11_branchC_294_mg0_submg0 = 0
  forkC_11_branchC_294_mg0_flop + x252 - thTok_forkC_11_branchC_294_mg0_submg0 <= 1
  forkC_11_branchC_294_mg0_flop - forkC_11_branchC_294_mg0_slots + x252 + thTok_forkC_11_branchC_294_mg0_submg0 <= 1
  -forkC_11_branchC_294_mg0_slots + thTok_forkC_11_branchC_294_mg0_submg0 <= 0
  -inRetimeTok_load_12_mg0_submg0 + inRetimeTok_fork_12_mg0_submg0 + thTok_fork_12_load_1273_mg0_submg0 = 0
  fork_12_load_1273_mg0_flop + x252 - thTok_fork_12_load_1273_mg0_submg0 <= 1
  fork_12_load_1273_mg0_flop - fork_12_load_1273_mg0_slots + x252 + thTok_fork_12_load_1273_mg0_submg0 <= 1
  -fork_12_load_1273_mg0_slots + thTok_fork_12_load_1273_mg0_submg0 <= 0
  -inRetimeTok_load_6_mg0_submg0 + outRetimeTok_load_6_mg0_submg0 <= 2
  -2 x252 - inRetimeTok_load_6_mg0_submg0 + outRetimeTok_load_6_mg0_submg0 >= 0
  -inRetimeTok_load_9_mg0_submg0 + outRetimeTok_load_9_mg0_submg0 <= 2
  -2 x252 - inRetimeTok_load_9_mg0_submg0 + outRetimeTok_load_9_mg0_submg0 >= 0
  -inRetimeTok_load_12_mg0_submg0 + outRetimeTok_load_12_mg0_submg0 <= 5
  -5 x252 - inRetimeTok_load_12_mg0_submg0 + outRetimeTok_load_12_mg0_submg0 >= 0
General
  phi_3_fork_2121_mg0_slots load_6_fork_12147_mg0_slots load_9_add_1377_mg0_slots load_12_add_1376_mg0_slots add_13_store_079_mg0_slots cst_2_add_1686_mg0_slots add_16_fork_3125_mg0_slots icmp_17_fork_4128_mg0_slots phiC_1_forkC_11144_mg0_slots branchC_2_phiC_192_mg0_slots phi_n3_fork_6134_mg0_slots phiC_4_forkC_7137_mg0_slots branch_3_phi_361_mg0_slots phi_n5_fork_8140_mg0_slots branch_7_phi_n399_mg0_slots branchC_10_phiC_4103_mg0_slots fork_2_load_665_mg0_slots fork_2_load_969_mg0_slots fork_2_add_1685_mg0_slots fork_3_icmp_1788_mg0_slots fork_3_branch_3106_mg0_slots fork_4_branchC_295_mg0_slots fork_4_branch_3107_mg0_slots fork_4_phi_n5111_mg0_slots fork_4_branch_7114_mg0_slots fork_4_branchC_10118_mg0_slots fork_6_icmp_1789_mg0_slots fork_6_branch_7113_mg0_slots forkC_7_cst_283_mg0_slots forkC_7_branchC_10117_mg0_slots fork_8_phi_360_mg0_slots fork_8_phi_n398_mg0_slots fork_8_phiC_4102_mg0_slots forkC_11_branchC_294_mg0_slots fork_12_load_1273_mg0_slots fork_12_store_080_mg0_slots
Binary
  phi_3_fork_2121_mg0_flop phi_3_fork_2121_mg0_hasBuffer load_6_fork_12147_mg0_flop load_6_fork_12147_mg0_hasBuffer load_9_add_1377_mg0_flop load_9_add_1377_mg0_hasBuffer load_12_add_1376_mg0_flop load_12_add_1376_mg0_hasBuffer add_13_store_079_mg0_flop add_13_store_079_mg0_hasBuffer cst_2_add_1686_mg0_flop cst_2_add_1686_mg0_hasBuffer add_16_fork_3125_mg0_flop add_16_fork_3125_mg0_hasBuffer icmp_17_fork_4128_mg0_flop icmp_17_fork_4128_mg0_hasBuffer phiC_1_forkC_11144_mg0_flop phiC_1_forkC_11144_mg0_hasBuffer branchC_2_phiC_192_mg0_flop branchC_2_phiC_192_mg0_hasBuffer phi_n3_fork_6134_mg0_flop phi_n3_fork_6134_mg0_hasBuffer phiC_4_forkC_7137_mg0_flop phiC_4_forkC_7137_mg0_hasBuffer branch_3_phi_361_mg0_flop branch_3_phi_361_mg0_hasBuffer phi_n5_fork_8140_mg0_flop phi_n5_fork_8140_mg0_hasBuffer branch_7_phi_n399_mg0_flop branch_7_phi_n399_mg0_hasBuffer branchC_10_phiC_4103_mg0_flop branchC_10_phiC_4103_mg0_hasBuffer fork_2_load_665_mg0_flop fork_2_load_665_mg0_hasBuffer fork_2_load_969_mg0_flop fork_2_load_969_mg0_hasBuffer fork_2_add_1685_mg0_flop fork_2_add_1685_mg0_hasBuffer fork_3_icmp_1788_mg0_flop fork_3_icmp_1788_mg0_hasBuffer fork_3_branch_3106_mg0_flop fork_3_branch_3106_mg0_hasBuffer fork_4_branchC_295_mg0_flop fork_4_branchC_295_mg0_hasBuffer fork_4_branch_3107_mg0_flop fork_4_branch_3107_mg0_hasBuffer fork_4_phi_n5111_mg0_flop fork_4_phi_n5111_mg0_hasBuffer fork_4_branch_7114_mg0_flop fork_4_branch_7114_mg0_hasBuffer fork_4_branchC_10118_mg0_flop fork_4_branchC_10118_mg0_hasBuffer fork_6_icmp_1789_mg0_flop fork_6_icmp_1789_mg0_hasBuffer fork_6_branch_7113_mg0_flop fork_6_branch_7113_mg0_hasBuffer forkC_7_cst_283_mg0_flop forkC_7_cst_283_mg0_hasBuffer forkC_7_branchC_10117_mg0_flop forkC_7_branchC_10117_mg0_hasBuffer fork_8_phi_360_mg0_flop fork_8_phi_360_mg0_hasBuffer fork_8_phi_n398_mg0_flop fork_8_phi_n398_mg0_hasBuffer fork_8_phiC_4102_mg0_flop fork_8_phiC_4102_mg0_hasBuffer forkC_11_branchC_294_mg0_flop forkC_11_branchC_294_mg0_hasBuffer fork_12_load_1273_mg0_flop fork_12_load_1273_mg0_hasBuffer fork_12_store_080_mg0_flop fork_12_store_080_mg0_hasBuffer
End
